10
426 782 28
1089 1189 24
91 880 27
69 869 26
452 1191 19
833 1172 15
600 1089 5
363 904 25
196 631 15
9 465 21
0 55 35 45 11 87 65 85 53 57 55
65 0 20 86 61 85 33 73 31 68 48
73 24 0 21 76 51 80 39 40 93 76
50 47 61 0 84 96 77 24 12 11 96
36 91 62 18 0 98 35 95 75 14 12
65 97 59 95 67 0 77 93 48 38 98
61 61 78 41 94 32 0 78 47 67 51
42 63 87 60 71 33 53 0 40 83 22
19 50 27 56 79 43 18 46 0 87 35
73 95 53 79 20 29 58 20 70 0 96
63 85 52 46 28 78 91 55 61 96 0
